c cksystemsgroup.github.io/unicorn
c CNF contains a total of 489 clauses.
c CNF contains a total of 116 variables.
c CNF clauses cover 1 bad states.
c Variable name mapping (17 names):
c   1: input[bit=0]
c   2: input[bit=0]
c   5: input[bit=1]
c   7: input[bit=1]
c   12: input[bit=2]
c   17: input[bit=2]
c   22: input[bit=3]
c   30: input[bit=3]
c   35: input[bit=4]
c   46: input[bit=4]
c   51: input[bit=5]
c   65: input[bit=5]
c   70: input[bit=6]
c   87: input[bit=6]
c   92: input[bit=7]
c   112: input[bit=7]
c   116: ?
p cnf 116 489
-1 -2 3 0
1 -3 0
2 -3 0
-3 -4 0
3 4 0
-5 -2 6 0
5 -6 0
2 -6 0
-1 -7 8 0
1 -8 0
7 -8 0
-9 0
6 8 9 -10 0
6 8 -9 10 0
6 -8 9 10 0
6 -8 -9 -10 0
-6 8 9 10 0
-6 8 -9 -10 0
-6 -8 9 -10 0
-6 -8 -9 10 0
-4 -10 11 0
4 -11 0
10 -11 0
-12 -2 13 0
12 -13 0
2 -13 0
-5 -7 14 0
5 -14 0
7 -14 0
6 8 -15 0
6 9 -15 0
-8 -9 15 0
8 9 -15 0
-6 -9 15 0
-6 -8 15 0
13 14 15 -16 0
13 14 -15 16 0
13 -14 15 16 0
13 -14 -15 -16 0
-13 14 15 16 0
-13 14 -15 -16 0
-13 -14 15 -16 0
-13 -14 -15 16 0
-1 -17 18 0
1 -18 0
17 -18 0
-19 0
16 18 19 -20 0
16 18 -19 20 0
16 -18 19 20 0
16 -18 -19 -20 0
-16 18 19 20 0
-16 18 -19 -20 0
-16 -18 19 -20 0
-16 -18 -19 20 0
-11 -20 21 0
11 -21 0
20 -21 0
-22 -2 23 0
22 -23 0
2 -23 0
-12 -7 24 0
12 -24 0
7 -24 0
13 14 -25 0
13 15 -25 0
-14 -15 25 0
14 15 -25 0
-13 -15 25 0
-13 -14 25 0
23 24 25 -26 0
23 24 -25 26 0
23 -24 25 26 0
23 -24 -25 -26 0
-23 24 25 26 0
-23 24 -25 -26 0
-23 -24 25 -26 0
-23 -24 -25 26 0
-5 -17 27 0
5 -27 0
17 -27 0
16 18 -28 0
16 19 -28 0
-18 -19 28 0
18 19 -28 0
-16 -19 28 0
-16 -18 28 0
26 27 28 -29 0
26 27 -28 29 0
26 -27 28 29 0
26 -27 -28 -29 0
-26 27 28 29 0
-26 27 -28 -29 0
-26 -27 28 -29 0
-26 -27 -28 29 0
-1 -30 31 0
1 -31 0
30 -31 0
-32 0
29 31 32 -33 0
29 31 -32 33 0
29 -31 32 33 0
29 -31 -32 -33 0
-29 31 32 33 0
-29 31 -32 -33 0
-29 -31 32 -33 0
-29 -31 -32 33 0
-21 -33 34 0
21 -34 0
33 -34 0
-35 -2 36 0
35 -36 0
2 -36 0
-22 -7 37 0
22 -37 0
7 -37 0
23 24 -38 0
23 25 -38 0
-24 -25 38 0
24 25 -38 0
-23 -25 38 0
-23 -24 38 0
36 37 38 -39 0
36 37 -38 39 0
36 -37 38 39 0
36 -37 -38 -39 0
-36 37 38 39 0
-36 37 -38 -39 0
-36 -37 38 -39 0
-36 -37 -38 39 0
-12 -17 40 0
12 -40 0
17 -40 0
26 27 -41 0
26 28 -41 0
-27 -28 41 0
27 28 -41 0
-26 -28 41 0
-26 -27 41 0
39 40 41 -42 0
39 40 -41 42 0
39 -40 41 42 0
39 -40 -41 -42 0
-39 40 41 42 0
-39 40 -41 -42 0
-39 -40 41 -42 0
-39 -40 -41 42 0
-5 -30 43 0
5 -43 0
30 -43 0
29 31 -44 0
29 32 -44 0
-31 -32 44 0
31 32 -44 0
-29 -32 44 0
-29 -31 44 0
42 43 44 -45 0
42 43 -44 45 0
42 -43 44 45 0
42 -43 -44 -45 0
-42 43 44 45 0
-42 43 -44 -45 0
-42 -43 44 -45 0
-42 -43 -44 45 0
-1 -46 47 0
1 -47 0
46 -47 0
-48 0
45 47 48 -49 0
45 47 -48 49 0
45 -47 48 49 0
45 -47 -48 -49 0
-45 47 48 49 0
-45 47 -48 -49 0
-45 -47 48 -49 0
-45 -47 -48 49 0
-34 -49 50 0
34 -50 0
49 -50 0
-51 -2 52 0
51 -52 0
2 -52 0
-35 -7 53 0
35 -53 0
7 -53 0
36 37 -54 0
36 38 -54 0
-37 -38 54 0
37 38 -54 0
-36 -38 54 0
-36 -37 54 0
52 53 54 -55 0
52 53 -54 55 0
52 -53 54 55 0
52 -53 -54 -55 0
-52 53 54 55 0
-52 53 -54 -55 0
-52 -53 54 -55 0
-52 -53 -54 55 0
-22 -17 56 0
22 -56 0
17 -56 0
39 40 -57 0
39 41 -57 0
-40 -41 57 0
40 41 -57 0
-39 -41 57 0
-39 -40 57 0
55 56 57 -58 0
55 56 -57 58 0
55 -56 57 58 0
55 -56 -57 -58 0
-55 56 57 58 0
-55 56 -57 -58 0
-55 -56 57 -58 0
-55 -56 -57 58 0
-12 -30 59 0
12 -59 0
30 -59 0
42 43 -60 0
42 44 -60 0
-43 -44 60 0
43 44 -60 0
-42 -44 60 0
-42 -43 60 0
58 59 60 -61 0
58 59 -60 61 0
58 -59 60 61 0
58 -59 -60 -61 0
-58 59 60 61 0
-58 59 -60 -61 0
-58 -59 60 -61 0
-58 -59 -60 61 0
-5 -46 62 0
5 -62 0
46 -62 0
45 47 -63 0
45 48 -63 0
-47 -48 63 0
47 48 -63 0
-45 -48 63 0
-45 -47 63 0
61 62 63 -64 0
61 62 -63 64 0
61 -62 63 64 0
61 -62 -63 -64 0
-61 62 63 64 0
-61 62 -63 -64 0
-61 -62 63 -64 0
-61 -62 -63 64 0
-1 -65 66 0
1 -66 0
65 -66 0
-67 0
64 66 67 -68 0
64 66 -67 68 0
64 -66 67 68 0
64 -66 -67 -68 0
-64 66 67 68 0
-64 66 -67 -68 0
-64 -66 67 -68 0
-64 -66 -67 68 0
-50 -68 69 0
50 -69 0
68 -69 0
-70 -2 71 0
70 -71 0
2 -71 0
-51 -7 72 0
51 -72 0
7 -72 0
52 53 -73 0
52 54 -73 0
-53 -54 73 0
53 54 -73 0
-52 -54 73 0
-52 -53 73 0
71 72 73 -74 0
71 72 -73 74 0
71 -72 73 74 0
71 -72 -73 -74 0
-71 72 73 74 0
-71 72 -73 -74 0
-71 -72 73 -74 0
-71 -72 -73 74 0
-35 -17 75 0
35 -75 0
17 -75 0
55 56 -76 0
55 57 -76 0
-56 -57 76 0
56 57 -76 0
-55 -57 76 0
-55 -56 76 0
74 75 76 -77 0
74 75 -76 77 0
74 -75 76 77 0
74 -75 -76 -77 0
-74 75 76 77 0
-74 75 -76 -77 0
-74 -75 76 -77 0
-74 -75 -76 77 0
-22 -30 78 0
22 -78 0
30 -78 0
58 59 -79 0
58 60 -79 0
-59 -60 79 0
59 60 -79 0
-58 -60 79 0
-58 -59 79 0
77 78 79 -80 0
77 78 -79 80 0
77 -78 79 80 0
77 -78 -79 -80 0
-77 78 79 80 0
-77 78 -79 -80 0
-77 -78 79 -80 0
-77 -78 -79 80 0
-12 -46 81 0
12 -81 0
46 -81 0
61 62 -82 0
61 63 -82 0
-62 -63 82 0
62 63 -82 0
-61 -63 82 0
-61 -62 82 0
80 81 82 -83 0
80 81 -82 83 0
80 -81 82 83 0
80 -81 -82 -83 0
-80 81 82 83 0
-80 81 -82 -83 0
-80 -81 82 -83 0
-80 -81 -82 83 0
-5 -65 84 0
5 -84 0
65 -84 0
64 66 -85 0
64 67 -85 0
-66 -67 85 0
66 67 -85 0
-64 -67 85 0
-64 -66 85 0
83 84 85 -86 0
83 84 -85 86 0
83 -84 85 86 0
83 -84 -85 -86 0
-83 84 85 86 0
-83 84 -85 -86 0
-83 -84 85 -86 0
-83 -84 -85 86 0
-1 -87 88 0
1 -88 0
87 -88 0
-89 0
86 88 89 -90 0
86 88 -89 90 0
86 -88 89 90 0
86 -88 -89 -90 0
-86 88 89 90 0
-86 88 -89 -90 0
-86 -88 89 -90 0
-86 -88 -89 90 0
-69 -90 91 0
69 -91 0
90 -91 0
-92 -2 93 0
92 -93 0
2 -93 0
-70 -7 94 0
70 -94 0
7 -94 0
71 72 -95 0
71 73 -95 0
-72 -73 95 0
72 73 -95 0
-71 -73 95 0
-71 -72 95 0
93 94 95 -96 0
93 94 -95 96 0
93 -94 95 96 0
93 -94 -95 -96 0
-93 94 95 96 0
-93 94 -95 -96 0
-93 -94 95 -96 0
-93 -94 -95 96 0
-51 -17 97 0
51 -97 0
17 -97 0
74 75 -98 0
74 76 -98 0
-75 -76 98 0
75 76 -98 0
-74 -76 98 0
-74 -75 98 0
96 97 98 -99 0
96 97 -98 99 0
96 -97 98 99 0
96 -97 -98 -99 0
-96 97 98 99 0
-96 97 -98 -99 0
-96 -97 98 -99 0
-96 -97 -98 99 0
-35 -30 100 0
35 -100 0
30 -100 0
77 78 -101 0
77 79 -101 0
-78 -79 101 0
78 79 -101 0
-77 -79 101 0
-77 -78 101 0
99 100 101 -102 0
99 100 -101 102 0
99 -100 101 102 0
99 -100 -101 -102 0
-99 100 101 102 0
-99 100 -101 -102 0
-99 -100 101 -102 0
-99 -100 -101 102 0
-22 -46 103 0
22 -103 0
46 -103 0
80 81 -104 0
80 82 -104 0
-81 -82 104 0
81 82 -104 0
-80 -82 104 0
-80 -81 104 0
102 103 104 -105 0
102 103 -104 105 0
102 -103 104 105 0
102 -103 -104 -105 0
-102 103 104 105 0
-102 103 -104 -105 0
-102 -103 104 -105 0
-102 -103 -104 105 0
-12 -65 106 0
12 -106 0
65 -106 0
83 84 -107 0
83 85 -107 0
-84 -85 107 0
84 85 -107 0
-83 -85 107 0
-83 -84 107 0
105 106 107 -108 0
105 106 -107 108 0
105 -106 107 108 0
105 -106 -107 -108 0
-105 106 107 108 0
-105 106 -107 -108 0
-105 -106 107 -108 0
-105 -106 -107 108 0
-5 -87 109 0
5 -109 0
87 -109 0
86 88 -110 0
86 89 -110 0
-88 -89 110 0
88 89 -110 0
-86 -89 110 0
-86 -88 110 0
108 109 110 -111 0
108 109 -110 111 0
108 -109 110 111 0
108 -109 -110 -111 0
-108 109 110 111 0
-108 109 -110 -111 0
-108 -109 110 -111 0
-108 -109 -110 111 0
-1 -112 113 0
1 -113 0
112 -113 0
-114 0
111 113 114 -115 0
111 113 -114 115 0
111 -113 114 115 0
111 -113 -114 -115 0
-111 113 114 115 0
-111 113 -114 -115 0
-111 -113 114 -115 0
-111 -113 -114 115 0
-91 -115 116 0
91 -116 0
115 -116 0
116 0
